\ENCODING=ISO-8859-1
\Problem name: IloCplex

Minimize
 obj1: 36 X(0,0) + 46 X(0,1) + 34 X(0,2) + 25 X(0,3) + 29 X(0,4) + 17 X(0,5)
       + 15 X(0,6) + 29 X(0,7) + 38 X(0,8) + 50 X(0,9) + 39 X(0,10)
       + 50 X(0,11) + 37 X(0,12) + 39 X(0,13) + 25 X(0,14) + 13 X(0,15)
       + 11 X(0,16) + 11 X(0,17) + 32 X(0,18) + 50 X(0,19) + 23 X(0,20)
       + 44 X(0,21) + 15 X(0,22) + 25 X(0,23) + 42 X(0,24) + 13 X(0,25)
       + 41 X(0,26) + 31 X(0,27) + 16 X(0,28) + 44 X(0,29) + 49 X(0,30)
       + 25 X(0,31) + 31 X(0,32) + 14 X(0,33) + 45 X(0,34) + 44 X(0,35)
       + 36 X(0,36) + 50 X(0,37) + 49 X(0,38) + 30 X(0,39) + 15 X(0,40)
       + 22 X(0,41) + 31 X(0,42) + 45 X(0,43) + 40 X(0,44) + 41 X(0,45)
       + 22 X(0,46) + 34 X(0,47) + 13 X(0,48) + 26 X(0,49) + 14 X(0,50)
       + 34 X(0,51) + 31 X(0,52) + 22 X(0,53) + 47 X(0,54) + 37 X(0,55)
       + 42 X(0,56) + 47 X(0,57) + 42 X(0,58) + 24 X(0,59) + 32 X(0,60)
       + 25 X(0,61) + 41 X(0,62) + 40 X(0,63) + 35 X(0,64) + 20 X(0,65)
       + 43 X(0,66) + 10 X(0,67) + 29 X(0,68) + 28 X(0,69) + 30 X(0,70)
       + 23 X(0,71) + 20 X(0,72) + 28 X(0,73) + 26 X(0,74) + 47 X(0,75)
       + 46 X(0,76) + 30 X(0,77) + 18 X(0,78) + 47 X(0,79) + 17 X(0,80)
       + 17 X(0,81) + 40 X(0,82) + 45 X(0,83) + 43 X(0,84) + 44 X(0,85)
       + 48 X(0,86) + 24 X(0,87) + 48 X(0,88) + 23 X(0,89) + 38 X(0,90)
       + 45 X(0,91) + 27 X(0,92) + 36 X(0,93) + 20 X(0,94) + 11 X(0,95)
       + 26 X(0,96) + 35 X(0,97) + 27 X(0,98) + 41 X(0,99) + 12 X(1,0)
       + 33 X(1,1) + 26 X(1,2) + 10 X(1,3) + 32 X(1,4) + 49 X(1,5) + 46 X(1,6)
       + 44 X(1,7) + 41 X(1,8) + 49 X(1,9) + 41 X(1,10) + 45 X(1,11)
       + 43 X(1,12) + 44 X(1,13) + 24 X(1,14) + 14 X(1,15) + 17 X(1,16)
       + 21 X(1,17) + 32 X(1,18) + 39 X(1,19) + 25 X(1,20) + 29 X(1,21)
       + 28 X(1,22) + 38 X(1,23) + 38 X(1,24) + 12 X(1,25) + 17 X(1,26)
       + 42 X(1,27) + 22 X(1,28) + 43 X(1,29) + 31 X(1,30) + 47 X(1,31)
       + 15 X(1,32) + 10 X(1,33) + 40 X(1,34) + 12 X(1,35) + 39 X(1,36)
       + 34 X(1,37) + 28 X(1,38) + 23 X(1,39) + 35 X(1,40) + 46 X(1,41)
       + 48 X(1,42) + 40 X(1,43) + 29 X(1,44) + 13 X(1,45) + 38 X(1,46)
       + 37 X(1,47) + 14 X(1,48) + 16 X(1,49) + 30 X(1,50) + 32 X(1,51)
       + 20 X(1,52) + 37 X(1,53) + 48 X(1,54) + 32 X(1,55) + 48 X(1,56)
       + 38 X(1,57) + 41 X(1,58) + 11 X(1,59) + 49 X(1,60) + 35 X(1,61)
       + 43 X(1,62) + 19 X(1,63) + 10 X(1,64) + 19 X(1,65) + 45 X(1,66)
       + 32 X(1,67) + 28 X(1,68) + 23 X(1,69) + 23 X(1,70) + 11 X(1,71)
       + 23 X(1,72) + 40 X(1,73) + 14 X(1,74) + 21 X(1,75) + 44 X(1,76)
       + 41 X(1,77) + 25 X(1,78) + 41 X(1,79) + 40 X(1,80) + 41 X(1,81)
       + 42 X(1,82) + 13 X(1,83) + 45 X(1,84) + 31 X(1,85) + 43 X(1,86)
       + 13 X(1,87) + 20 X(1,88) + 25 X(1,89) + 30 X(1,90) + 19 X(1,91)
       + 10 X(1,92) + 10 X(1,93) + 43 X(1,94) + 31 X(1,95) + 35 X(1,96)
       + 21 X(1,97) + 31 X(1,98) + 45 X(1,99) + 34 X(2,0) + 23 X(2,1)
       + 36 X(2,2) + 34 X(2,3) + 21 X(2,4) + 39 X(2,5) + 48 X(2,6) + 37 X(2,7)
       + 34 X(2,8) + 10 X(2,9) + 44 X(2,10) + 39 X(2,11) + 41 X(2,12)
       + 13 X(2,13) + 45 X(2,14) + 11 X(2,15) + 35 X(2,16) + 43 X(2,17)
       + 35 X(2,18) + 46 X(2,19) + 27 X(2,20) + 36 X(2,21) + 19 X(2,22)
       + 23 X(2,23) + 21 X(2,24) + 20 X(2,25) + 46 X(2,26) + 29 X(2,27)
       + 29 X(2,28) + 12 X(2,29) + 40 X(2,30) + 11 X(2,31) + 14 X(2,32)
       + 50 X(2,33) + 25 X(2,34) + 34 X(2,35) + 32 X(2,36) + 37 X(2,37)
       + 28 X(2,38) + 36 X(2,39) + 35 X(2,40) + 15 X(2,41) + 25 X(2,42)
       + 37 X(2,43) + 30 X(2,44) + 41 X(2,45) + 28 X(2,46) + 32 X(2,47)
       + 48 X(2,48) + 32 X(2,49) + 40 X(2,50) + 32 X(2,51) + 40 X(2,52)
       + 41 X(2,53) + 17 X(2,54) + 41 X(2,55) + 34 X(2,56) + 40 X(2,57)
       + 19 X(2,58) + 42 X(2,59) + 36 X(2,60) + 15 X(2,61) + 50 X(2,62)
       + 26 X(2,63) + 49 X(2,64) + 47 X(2,65) + 20 X(2,66) + 35 X(2,67)
       + 39 X(2,68) + 20 X(2,69) + 10 X(2,70) + 23 X(2,71) + 42 X(2,72)
       + 39 X(2,73) + 14 X(2,74) + 44 X(2,75) + 44 X(2,76) + 22 X(2,77)
       + 34 X(2,78) + 23 X(2,79) + 26 X(2,80) + 50 X(2,81) + 26 X(2,82)
       + 35 X(2,83) + 15 X(2,84) + 39 X(2,85) + 46 X(2,86) + 26 X(2,87)
       + 48 X(2,88) + 17 X(2,89) + 47 X(2,90) + 16 X(2,91) + 44 X(2,92)
       + 39 X(2,93) + 50 X(2,94) + 46 X(2,95) + 21 X(2,96) + 50 X(2,97)
       + 50 X(2,98) + 17 X(2,99) + 10 X(3,0) + 42 X(3,1) + 25 X(3,2)
       + 24 X(3,3) + 16 X(3,4) + 31 X(3,5) + 11 X(3,6) + 25 X(3,7) + 21 X(3,8)
       + 43 X(3,9) + 41 X(3,10) + 27 X(3,11) + 38 X(3,12) + 31 X(3,13)
       + 36 X(3,14) + 35 X(3,15) + 14 X(3,16) + 17 X(3,17) + 18 X(3,18)
       + 36 X(3,19) + 25 X(3,20) + 27 X(3,21) + 44 X(3,22) + 18 X(3,23)
       + 24 X(3,24) + 46 X(3,25) + 43 X(3,26) + 44 X(3,27) + 21 X(3,28)
       + 20 X(3,29) + 11 X(3,30) + 42 X(3,31) + 20 X(3,32) + 24 X(3,33)
       + 33 X(3,34) + 42 X(3,35) + 41 X(3,36) + 32 X(3,37) + 50 X(3,38)
       + 25 X(3,39) + 47 X(3,40) + 15 X(3,41) + 38 X(3,42) + 29 X(3,43)
       + 32 X(3,44) + 46 X(3,45) + 25 X(3,46) + 10 X(3,47) + 42 X(3,48)
       + 33 X(3,49) + 27 X(3,50) + 20 X(3,51) + 11 X(3,52) + 33 X(3,53)
       + 41 X(3,54) + 31 X(3,55) + 11 X(3,56) + 23 X(3,57) + 49 X(3,58)
       + 12 X(3,59) + 20 X(3,60) + 50 X(3,61) + 39 X(3,62) + 47 X(3,63)
       + 45 X(3,64) + 38 X(3,65) + 50 X(3,66) + 19 X(3,67) + 45 X(3,68)
       + 49 X(3,69) + 33 X(3,70) + 49 X(3,71) + 25 X(3,72) + 44 X(3,73)
       + 32 X(3,74) + 30 X(3,75) + 42 X(3,76) + 47 X(3,77) + 25 X(3,78)
       + 21 X(3,79) + 45 X(3,80) + 11 X(3,81) + 13 X(3,82) + 33 X(3,83)
       + 17 X(3,84) + 48 X(3,85) + 19 X(3,86) + 37 X(3,87) + 27 X(3,88)
       + 29 X(3,89) + 17 X(3,90) + 44 X(3,91) + 34 X(3,92) + 37 X(3,93)
       + 19 X(3,94) + 50 X(3,95) + 43 X(3,96) + 22 X(3,97) + 27 X(3,98)
       + 38 X(3,99) + 39 X(4,0) + 19 X(4,1) + 24 X(4,2) + 16 X(4,3) + 50 X(4,4)
       + 20 X(4,5) + 39 X(4,6) + 11 X(4,7) + 26 X(4,8) + 40 X(4,9) + 18 X(4,10)
       + 44 X(4,11) + 37 X(4,12) + 26 X(4,13) + 13 X(4,14) + 25 X(4,15)
       + 16 X(4,16) + 12 X(4,17) + 39 X(4,18) + 19 X(4,19) + 31 X(4,20)
       + 29 X(4,21) + 34 X(4,22) + 48 X(4,23) + 42 X(4,24) + 11 X(4,25)
       + 32 X(4,26) + 27 X(4,27) + 39 X(4,28) + 26 X(4,29) + 47 X(4,30)
       + 37 X(4,31) + 39 X(4,32) + 49 X(4,33) + 37 X(4,34) + 50 X(4,35)
       + 33 X(4,36) + 26 X(4,37) + 12 X(4,38) + 12 X(4,39) + 26 X(4,40)
       + 38 X(4,41) + 22 X(4,42) + 13 X(4,43) + 11 X(4,44) + 20 X(4,45)
       + 40 X(4,46) + 44 X(4,47) + 25 X(4,48) + 38 X(4,49) + 29 X(4,50)
       + 37 X(4,51) + 11 X(4,52) + 19 X(4,53) + 39 X(4,54) + 33 X(4,55)
       + 27 X(4,56) + 50 X(4,57) + 33 X(4,58) + 35 X(4,59) + 40 X(4,60)
       + 47 X(4,61) + 47 X(4,62) + 15 X(4,63) + 23 X(4,64) + 11 X(4,65)
       + 38 X(4,66) + 29 X(4,67) + 36 X(4,68) + 50 X(4,69) + 39 X(4,70)
       + 12 X(4,71) + 47 X(4,72) + 21 X(4,73) + 50 X(4,74) + 24 X(4,75)
       + 29 X(4,76) + 47 X(4,77) + 35 X(4,78) + 39 X(4,79) + 25 X(4,80)
       + 42 X(4,81) + 35 X(4,82) + 30 X(4,83) + 19 X(4,84) + 23 X(4,85)
       + 22 X(4,86) + 28 X(4,87) + 16 X(4,88) + 39 X(4,89) + 10 X(4,90)
       + 46 X(4,91) + 37 X(4,92) + 29 X(4,93) + 18 X(4,94) + 30 X(4,95)
       + 16 X(4,96) + 32 X(4,97) + 30 X(4,98) + 33 X(4,99)
Subject To
 R_Agent(0): X(0,0) + X(0,1) + X(0,2) + X(0,3) + X(0,4) + X(0,5) + X(0,6)
             + X(0,7) + X(0,8) + X(0,9) + X(0,10) + X(0,11) + X(0,12) + X(0,13)
             + X(0,14) + X(0,15) + X(0,16) + X(0,17) + X(0,18) + X(0,19)
             + X(0,20) + X(0,21) + X(0,22) + X(0,23) + X(0,24) + X(0,25)
             + X(0,26) + X(0,27) + X(0,28) + X(0,29) + X(0,30) + X(0,31)
             + X(0,32) + X(0,33) + X(0,34) + X(0,35) + X(0,36) + X(0,37)
             + X(0,38) + X(0,39) + X(0,40) + X(0,41) + X(0,42) + X(0,43)
             + X(0,44) + X(0,45) + X(0,46) + X(0,47) + X(0,48) + X(0,49)
             + X(0,50) + X(0,51) + X(0,52) + X(0,53) + X(0,54) + X(0,55)
             + X(0,56) + X(0,57) + X(0,58) + X(0,59) + X(0,60) + X(0,61)
             + X(0,62) + X(0,63) + X(0,64) + X(0,65) + X(0,66) + X(0,67)
             + X(0,68) + X(0,69) + X(0,70) + X(0,71) + X(0,72) + X(0,73)
             + X(0,74) + X(0,75) + X(0,76) + X(0,77) + X(0,78) + X(0,79)
             + X(0,80) + X(0,81) + X(0,82) + X(0,83) + X(0,84) + X(0,85)
             + X(0,86) + X(0,87) + X(0,88) + X(0,89) + X(0,90) + X(0,91)
             + X(0,92) + X(0,93) + X(0,94) + X(0,95) + X(0,96) + X(0,97)
             + X(0,98) + X(0,99)  = 1
 R_Agent(1): X(1,0) + X(1,1) + X(1,2) + X(1,3) + X(1,4) + X(1,5) + X(1,6)
             + X(1,7) + X(1,8) + X(1,9) + X(1,10) + X(1,11) + X(1,12) + X(1,13)
             + X(1,14) + X(1,15) + X(1,16) + X(1,17) + X(1,18) + X(1,19)
             + X(1,20) + X(1,21) + X(1,22) + X(1,23) + X(1,24) + X(1,25)
             + X(1,26) + X(1,27) + X(1,28) + X(1,29) + X(1,30) + X(1,31)
             + X(1,32) + X(1,33) + X(1,34) + X(1,35) + X(1,36) + X(1,37)
             + X(1,38) + X(1,39) + X(1,40) + X(1,41) + X(1,42) + X(1,43)
             + X(1,44) + X(1,45) + X(1,46) + X(1,47) + X(1,48) + X(1,49)
             + X(1,50) + X(1,51) + X(1,52) + X(1,53) + X(1,54) + X(1,55)
             + X(1,56) + X(1,57) + X(1,58) + X(1,59) + X(1,60) + X(1,61)
             + X(1,62) + X(1,63) + X(1,64) + X(1,65) + X(1,66) + X(1,67)
             + X(1,68) + X(1,69) + X(1,70) + X(1,71) + X(1,72) + X(1,73)
             + X(1,74) + X(1,75) + X(1,76) + X(1,77) + X(1,78) + X(1,79)
             + X(1,80) + X(1,81) + X(1,82) + X(1,83) + X(1,84) + X(1,85)
             + X(1,86) + X(1,87) + X(1,88) + X(1,89) + X(1,90) + X(1,91)
             + X(1,92) + X(1,93) + X(1,94) + X(1,95) + X(1,96) + X(1,97)
             + X(1,98) + X(1,99)  = 1
 R_Agent(2): X(2,0) + X(2,1) + X(2,2) + X(2,3) + X(2,4) + X(2,5) + X(2,6)
             + X(2,7) + X(2,8) + X(2,9) + X(2,10) + X(2,11) + X(2,12) + X(2,13)
             + X(2,14) + X(2,15) + X(2,16) + X(2,17) + X(2,18) + X(2,19)
             + X(2,20) + X(2,21) + X(2,22) + X(2,23) + X(2,24) + X(2,25)
             + X(2,26) + X(2,27) + X(2,28) + X(2,29) + X(2,30) + X(2,31)
             + X(2,32) + X(2,33) + X(2,34) + X(2,35) + X(2,36) + X(2,37)
             + X(2,38) + X(2,39) + X(2,40) + X(2,41) + X(2,42) + X(2,43)
             + X(2,44) + X(2,45) + X(2,46) + X(2,47) + X(2,48) + X(2,49)
             + X(2,50) + X(2,51) + X(2,52) + X(2,53) + X(2,54) + X(2,55)
             + X(2,56) + X(2,57) + X(2,58) + X(2,59) + X(2,60) + X(2,61)
             + X(2,62) + X(2,63) + X(2,64) + X(2,65) + X(2,66) + X(2,67)
             + X(2,68) + X(2,69) + X(2,70) + X(2,71) + X(2,72) + X(2,73)
             + X(2,74) + X(2,75) + X(2,76) + X(2,77) + X(2,78) + X(2,79)
             + X(2,80) + X(2,81) + X(2,82) + X(2,83) + X(2,84) + X(2,85)
             + X(2,86) + X(2,87) + X(2,88) + X(2,89) + X(2,90) + X(2,91)
             + X(2,92) + X(2,93) + X(2,94) + X(2,95) + X(2,96) + X(2,97)
             + X(2,98) + X(2,99)  = 1
 R_Agent(3): X(3,0) + X(3,1) + X(3,2) + X(3,3) + X(3,4) + X(3,5) + X(3,6)
             + X(3,7) + X(3,8) + X(3,9) + X(3,10) + X(3,11) + X(3,12) + X(3,13)
             + X(3,14) + X(3,15) + X(3,16) + X(3,17) + X(3,18) + X(3,19)
             + X(3,20) + X(3,21) + X(3,22) + X(3,23) + X(3,24) + X(3,25)
             + X(3,26) + X(3,27) + X(3,28) + X(3,29) + X(3,30) + X(3,31)
             + X(3,32) + X(3,33) + X(3,34) + X(3,35) + X(3,36) + X(3,37)
             + X(3,38) + X(3,39) + X(3,40) + X(3,41) + X(3,42) + X(3,43)
             + X(3,44) + X(3,45) + X(3,46) + X(3,47) + X(3,48) + X(3,49)
             + X(3,50) + X(3,51) + X(3,52) + X(3,53) + X(3,54) + X(3,55)
             + X(3,56) + X(3,57) + X(3,58) + X(3,59) + X(3,60) + X(3,61)
             + X(3,62) + X(3,63) + X(3,64) + X(3,65) + X(3,66) + X(3,67)
             + X(3,68) + X(3,69) + X(3,70) + X(3,71) + X(3,72) + X(3,73)
             + X(3,74) + X(3,75) + X(3,76) + X(3,77) + X(3,78) + X(3,79)
             + X(3,80) + X(3,81) + X(3,82) + X(3,83) + X(3,84) + X(3,85)
             + X(3,86) + X(3,87) + X(3,88) + X(3,89) + X(3,90) + X(3,91)
             + X(3,92) + X(3,93) + X(3,94) + X(3,95) + X(3,96) + X(3,97)
             + X(3,98) + X(3,99)  = 1
 R_Agent(4): X(4,0) + X(4,1) + X(4,2) + X(4,3) + X(4,4) + X(4,5) + X(4,6)
             + X(4,7) + X(4,8) + X(4,9) + X(4,10) + X(4,11) + X(4,12) + X(4,13)
             + X(4,14) + X(4,15) + X(4,16) + X(4,17) + X(4,18) + X(4,19)
             + X(4,20) + X(4,21) + X(4,22) + X(4,23) + X(4,24) + X(4,25)
             + X(4,26) + X(4,27) + X(4,28) + X(4,29) + X(4,30) + X(4,31)
             + X(4,32) + X(4,33) + X(4,34) + X(4,35) + X(4,36) + X(4,37)
             + X(4,38) + X(4,39) + X(4,40) + X(4,41) + X(4,42) + X(4,43)
             + X(4,44) + X(4,45) + X(4,46) + X(4,47) + X(4,48) + X(4,49)
             + X(4,50) + X(4,51) + X(4,52) + X(4,53) + X(4,54) + X(4,55)
             + X(4,56) + X(4,57) + X(4,58) + X(4,59) + X(4,60) + X(4,61)
             + X(4,62) + X(4,63) + X(4,64) + X(4,65) + X(4,66) + X(4,67)
             + X(4,68) + X(4,69) + X(4,70) + X(4,71) + X(4,72) + X(4,73)
             + X(4,74) + X(4,75) + X(4,76) + X(4,77) + X(4,78) + X(4,79)
             + X(4,80) + X(4,81) + X(4,82) + X(4,83) + X(4,84) + X(4,85)
             + X(4,86) + X(4,87) + X(4,88) + X(4,89) + X(4,90) + X(4,91)
             + X(4,92) + X(4,93) + X(4,94) + X(4,95) + X(4,96) + X(4,97)
             + X(4,98) + X(4,99)  = 1
 R_Job(0):   X(0,0) + X(1,0) + X(2,0) + X(3,0) + X(4,0) <= 1
 R_Job(1):   X(0,1) + X(1,1) + X(2,1) + X(3,1) + X(4,1) <= 1
 R_Job(2):   X(0,2) + X(1,2) + X(2,2) + X(3,2) + X(4,2) <= 1
 R_Job(3):   X(0,3) + X(1,3) + X(2,3) + X(3,3) + X(4,3) <= 1
 R_Job(4):   X(0,4) + X(1,4) + X(2,4) + X(3,4) + X(4,4) <= 1
 R_Job(5):   X(0,5) + X(1,5) + X(2,5) + X(3,5) + X(4,5) <= 1
 R_Job(6):   X(0,6) + X(1,6) + X(2,6) + X(3,6) + X(4,6) <= 1
 R_Job(7):   X(0,7) + X(1,7) + X(2,7) + X(3,7) + X(4,7) <= 1
 R_Job(8):   X(0,8) + X(1,8) + X(2,8) + X(3,8) + X(4,8) <= 1
 R_Job(9):   X(0,9) + X(1,9) + X(2,9) + X(3,9) + X(4,9) <= 1
 R_Job(10):  X(0,10) + X(1,10) + X(2,10) + X(3,10) + X(4,10) <= 1
 R_Job(11):  X(0,11) + X(1,11) + X(2,11) + X(3,11) + X(4,11) <= 1
 R_Job(12):  X(0,12) + X(1,12) + X(2,12) + X(3,12) + X(4,12) <= 1
 R_Job(13):  X(0,13) + X(1,13) + X(2,13) + X(3,13) + X(4,13) <= 1
 R_Job(14):  X(0,14) + X(1,14) + X(2,14) + X(3,14) + X(4,14) <= 1
 R_Job(15):  X(0,15) + X(1,15) + X(2,15) + X(3,15) + X(4,15) <= 1
 R_Job(16):  X(0,16) + X(1,16) + X(2,16) + X(3,16) + X(4,16) <= 1
 R_Job(17):  X(0,17) + X(1,17) + X(2,17) + X(3,17) + X(4,17) <= 1
 R_Job(18):  X(0,18) + X(1,18) + X(2,18) + X(3,18) + X(4,18) <= 1
 R_Job(19):  X(0,19) + X(1,19) + X(2,19) + X(3,19) + X(4,19) <= 1
 R_Job(20):  X(0,20) + X(1,20) + X(2,20) + X(3,20) + X(4,20) <= 1
 R_Job(21):  X(0,21) + X(1,21) + X(2,21) + X(3,21) + X(4,21) <= 1
 R_Job(22):  X(0,22) + X(1,22) + X(2,22) + X(3,22) + X(4,22) <= 1
 R_Job(23):  X(0,23) + X(1,23) + X(2,23) + X(3,23) + X(4,23) <= 1
 R_Job(24):  X(0,24) + X(1,24) + X(2,24) + X(3,24) + X(4,24) <= 1
 R_Job(25):  X(0,25) + X(1,25) + X(2,25) + X(3,25) + X(4,25) <= 1
 R_Job(26):  X(0,26) + X(1,26) + X(2,26) + X(3,26) + X(4,26) <= 1
 R_Job(27):  X(0,27) + X(1,27) + X(2,27) + X(3,27) + X(4,27) <= 1
 R_Job(28):  X(0,28) + X(1,28) + X(2,28) + X(3,28) + X(4,28) <= 1
 R_Job(29):  X(0,29) + X(1,29) + X(2,29) + X(3,29) + X(4,29) <= 1
 R_Job(30):  X(0,30) + X(1,30) + X(2,30) + X(3,30) + X(4,30) <= 1
 R_Job(31):  X(0,31) + X(1,31) + X(2,31) + X(3,31) + X(4,31) <= 1
 R_Job(32):  X(0,32) + X(1,32) + X(2,32) + X(3,32) + X(4,32) <= 1
 R_Job(33):  X(0,33) + X(1,33) + X(2,33) + X(3,33) + X(4,33) <= 1
 R_Job(34):  X(0,34) + X(1,34) + X(2,34) + X(3,34) + X(4,34) <= 1
 R_Job(35):  X(0,35) + X(1,35) + X(2,35) + X(3,35) + X(4,35) <= 1
 R_Job(36):  X(0,36) + X(1,36) + X(2,36) + X(3,36) + X(4,36) <= 1
 R_Job(37):  X(0,37) + X(1,37) + X(2,37) + X(3,37) + X(4,37) <= 1
 R_Job(38):  X(0,38) + X(1,38) + X(2,38) + X(3,38) + X(4,38) <= 1
 R_Job(39):  X(0,39) + X(1,39) + X(2,39) + X(3,39) + X(4,39) <= 1
 R_Job(40):  X(0,40) + X(1,40) + X(2,40) + X(3,40) + X(4,40) <= 1
 R_Job(41):  X(0,41) + X(1,41) + X(2,41) + X(3,41) + X(4,41) <= 1
 R_Job(42):  X(0,42) + X(1,42) + X(2,42) + X(3,42) + X(4,42) <= 1
 R_Job(43):  X(0,43) + X(1,43) + X(2,43) + X(3,43) + X(4,43) <= 1
 R_Job(44):  X(0,44) + X(1,44) + X(2,44) + X(3,44) + X(4,44) <= 1
 R_Job(45):  X(0,45) + X(1,45) + X(2,45) + X(3,45) + X(4,45) <= 1
 R_Job(46):  X(0,46) + X(1,46) + X(2,46) + X(3,46) + X(4,46) <= 1
 R_Job(47):  X(0,47) + X(1,47) + X(2,47) + X(3,47) + X(4,47) <= 1
 R_Job(48):  X(0,48) + X(1,48) + X(2,48) + X(3,48) + X(4,48) <= 1
 R_Job(49):  X(0,49) + X(1,49) + X(2,49) + X(3,49) + X(4,49) <= 1
 R_Job(50):  X(0,50) + X(1,50) + X(2,50) + X(3,50) + X(4,50) <= 1
 R_Job(51):  X(0,51) + X(1,51) + X(2,51) + X(3,51) + X(4,51) <= 1
 R_Job(52):  X(0,52) + X(1,52) + X(2,52) + X(3,52) + X(4,52) <= 1
 R_Job(53):  X(0,53) + X(1,53) + X(2,53) + X(3,53) + X(4,53) <= 1
 R_Job(54):  X(0,54) + X(1,54) + X(2,54) + X(3,54) + X(4,54) <= 1
 R_Job(55):  X(0,55) + X(1,55) + X(2,55) + X(3,55) + X(4,55) <= 1
 R_Job(56):  X(0,56) + X(1,56) + X(2,56) + X(3,56) + X(4,56) <= 1
 R_Job(57):  X(0,57) + X(1,57) + X(2,57) + X(3,57) + X(4,57) <= 1
 R_Job(58):  X(0,58) + X(1,58) + X(2,58) + X(3,58) + X(4,58) <= 1
 R_Job(59):  X(0,59) + X(1,59) + X(2,59) + X(3,59) + X(4,59) <= 1
 R_Job(60):  X(0,60) + X(1,60) + X(2,60) + X(3,60) + X(4,60) <= 1
 R_Job(61):  X(0,61) + X(1,61) + X(2,61) + X(3,61) + X(4,61) <= 1
 R_Job(62):  X(0,62) + X(1,62) + X(2,62) + X(3,62) + X(4,62) <= 1
 R_Job(63):  X(0,63) + X(1,63) + X(2,63) + X(3,63) + X(4,63) <= 1
 R_Job(64):  X(0,64) + X(1,64) + X(2,64) + X(3,64) + X(4,64) <= 1
 R_Job(65):  X(0,65) + X(1,65) + X(2,65) + X(3,65) + X(4,65) <= 1
 R_Job(66):  X(0,66) + X(1,66) + X(2,66) + X(3,66) + X(4,66) <= 1
 R_Job(67):  X(0,67) + X(1,67) + X(2,67) + X(3,67) + X(4,67) <= 1
 R_Job(68):  X(0,68) + X(1,68) + X(2,68) + X(3,68) + X(4,68) <= 1
 R_Job(69):  X(0,69) + X(1,69) + X(2,69) + X(3,69) + X(4,69) <= 1
 R_Job(70):  X(0,70) + X(1,70) + X(2,70) + X(3,70) + X(4,70) <= 1
 R_Job(71):  X(0,71) + X(1,71) + X(2,71) + X(3,71) + X(4,71) <= 1
 R_Job(72):  X(0,72) + X(1,72) + X(2,72) + X(3,72) + X(4,72) <= 1
 R_Job(73):  X(0,73) + X(1,73) + X(2,73) + X(3,73) + X(4,73) <= 1
 R_Job(74):  X(0,74) + X(1,74) + X(2,74) + X(3,74) + X(4,74) <= 1
 R_Job(75):  X(0,75) + X(1,75) + X(2,75) + X(3,75) + X(4,75) <= 1
 R_Job(76):  X(0,76) + X(1,76) + X(2,76) + X(3,76) + X(4,76) <= 1
 R_Job(77):  X(0,77) + X(1,77) + X(2,77) + X(3,77) + X(4,77) <= 1
 R_Job(78):  X(0,78) + X(1,78) + X(2,78) + X(3,78) + X(4,78) <= 1
 R_Job(79):  X(0,79) + X(1,79) + X(2,79) + X(3,79) + X(4,79) <= 1
 R_Job(80):  X(0,80) + X(1,80) + X(2,80) + X(3,80) + X(4,80) <= 1
 R_Job(81):  X(0,81) + X(1,81) + X(2,81) + X(3,81) + X(4,81) <= 1
 R_Job(82):  X(0,82) + X(1,82) + X(2,82) + X(3,82) + X(4,82) <= 1
 R_Job(83):  X(0,83) + X(1,83) + X(2,83) + X(3,83) + X(4,83) <= 1
 R_Job(84):  X(0,84) + X(1,84) + X(2,84) + X(3,84) + X(4,84) <= 1
 R_Job(85):  X(0,85) + X(1,85) + X(2,85) + X(3,85) + X(4,85) <= 1
 R_Job(86):  X(0,86) + X(1,86) + X(2,86) + X(3,86) + X(4,86) <= 1
 R_Job(87):  X(0,87) + X(1,87) + X(2,87) + X(3,87) + X(4,87) <= 1
 R_Job(88):  X(0,88) + X(1,88) + X(2,88) + X(3,88) + X(4,88) <= 1
 R_Job(89):  X(0,89) + X(1,89) + X(2,89) + X(3,89) + X(4,89) <= 1
 R_Job(90):  X(0,90) + X(1,90) + X(2,90) + X(3,90) + X(4,90) <= 1
 R_Job(91):  X(0,91) + X(1,91) + X(2,91) + X(3,91) + X(4,91) <= 1
 R_Job(92):  X(0,92) + X(1,92) + X(2,92) + X(3,92) + X(4,92) <= 1
 R_Job(93):  X(0,93) + X(1,93) + X(2,93) + X(3,93) + X(4,93) <= 1
 R_Job(94):  X(0,94) + X(1,94) + X(2,94) + X(3,94) + X(4,94) <= 1
 R_Job(95):  X(0,95) + X(1,95) + X(2,95) + X(3,95) + X(4,95) <= 1
 R_Job(96):  X(0,96) + X(1,96) + X(2,96) + X(3,96) + X(4,96) <= 1
 R_Job(97):  X(0,97) + X(1,97) + X(2,97) + X(3,97) + X(4,97) <= 1
 R_Job(98):  X(0,98) + X(1,98) + X(2,98) + X(3,98) + X(4,98) <= 1
 R_Job(99):  X(0,99) + X(1,99) + X(2,99) + X(3,99) + X(4,99) <= 1
Bounds
 0 <= X(0,0) <= 1
 0 <= X(0,1) <= 1
 0 <= X(0,2) <= 1
 0 <= X(0,3) <= 1
 0 <= X(0,4) <= 1
 0 <= X(0,5) <= 1
 0 <= X(0,6) <= 1
 0 <= X(0,7) <= 1
 0 <= X(0,8) <= 1
 0 <= X(0,9) <= 1
 0 <= X(0,10) <= 1
 0 <= X(0,11) <= 1
 0 <= X(0,12) <= 1
 0 <= X(0,13) <= 1
 0 <= X(0,14) <= 1
 0 <= X(0,15) <= 1
 0 <= X(0,16) <= 1
 0 <= X(0,17) <= 1
 0 <= X(0,18) <= 1
 0 <= X(0,19) <= 1
 0 <= X(0,20) <= 1
 0 <= X(0,21) <= 1
 0 <= X(0,22) <= 1
 0 <= X(0,23) <= 1
 0 <= X(0,24) <= 1
 0 <= X(0,25) <= 1
 0 <= X(0,26) <= 1
 0 <= X(0,27) <= 1
 0 <= X(0,28) <= 1
 0 <= X(0,29) <= 1
 0 <= X(0,30) <= 1
 0 <= X(0,31) <= 1
 0 <= X(0,32) <= 1
 0 <= X(0,33) <= 1
 0 <= X(0,34) <= 1
 0 <= X(0,35) <= 1
 0 <= X(0,36) <= 1
 0 <= X(0,37) <= 1
 0 <= X(0,38) <= 1
 0 <= X(0,39) <= 1
 0 <= X(0,40) <= 1
 0 <= X(0,41) <= 1
 0 <= X(0,42) <= 1
 0 <= X(0,43) <= 1
 0 <= X(0,44) <= 1
 0 <= X(0,45) <= 1
 0 <= X(0,46) <= 1
 0 <= X(0,47) <= 1
 0 <= X(0,48) <= 1
 0 <= X(0,49) <= 1
 0 <= X(0,50) <= 1
 0 <= X(0,51) <= 1
 0 <= X(0,52) <= 1
 0 <= X(0,53) <= 1
 0 <= X(0,54) <= 1
 0 <= X(0,55) <= 1
 0 <= X(0,56) <= 1
 0 <= X(0,57) <= 1
 0 <= X(0,58) <= 1
 0 <= X(0,59) <= 1
 0 <= X(0,60) <= 1
 0 <= X(0,61) <= 1
 0 <= X(0,62) <= 1
 0 <= X(0,63) <= 1
 0 <= X(0,64) <= 1
 0 <= X(0,65) <= 1
 0 <= X(0,66) <= 1
 0 <= X(0,67) <= 1
 0 <= X(0,68) <= 1
 0 <= X(0,69) <= 1
 0 <= X(0,70) <= 1
 0 <= X(0,71) <= 1
 0 <= X(0,72) <= 1
 0 <= X(0,73) <= 1
 0 <= X(0,74) <= 1
 0 <= X(0,75) <= 1
 0 <= X(0,76) <= 1
 0 <= X(0,77) <= 1
 0 <= X(0,78) <= 1
 0 <= X(0,79) <= 1
 0 <= X(0,80) <= 1
 0 <= X(0,81) <= 1
 0 <= X(0,82) <= 1
 0 <= X(0,83) <= 1
 0 <= X(0,84) <= 1
 0 <= X(0,85) <= 1
 0 <= X(0,86) <= 1
 0 <= X(0,87) <= 1
 0 <= X(0,88) <= 1
 0 <= X(0,89) <= 1
 0 <= X(0,90) <= 1
 0 <= X(0,91) <= 1
 0 <= X(0,92) <= 1
 0 <= X(0,93) <= 1
 0 <= X(0,94) <= 1
 0 <= X(0,95) <= 1
 0 <= X(0,96) <= 1
 0 <= X(0,97) <= 1
 0 <= X(0,98) <= 1
 0 <= X(0,99) <= 1
 0 <= X(1,0) <= 1
 0 <= X(1,1) <= 1
 0 <= X(1,2) <= 1
 0 <= X(1,3) <= 1
 0 <= X(1,4) <= 1
 0 <= X(1,5) <= 1
 0 <= X(1,6) <= 1
 0 <= X(1,7) <= 1
 0 <= X(1,8) <= 1
 0 <= X(1,9) <= 1
 0 <= X(1,10) <= 1
 0 <= X(1,11) <= 1
 0 <= X(1,12) <= 1
 0 <= X(1,13) <= 1
 0 <= X(1,14) <= 1
 0 <= X(1,15) <= 1
 0 <= X(1,16) <= 1
 0 <= X(1,17) <= 1
 0 <= X(1,18) <= 1
 0 <= X(1,19) <= 1
 0 <= X(1,20) <= 1
 0 <= X(1,21) <= 1
 0 <= X(1,22) <= 1
 0 <= X(1,23) <= 1
 0 <= X(1,24) <= 1
 0 <= X(1,25) <= 1
 0 <= X(1,26) <= 1
 0 <= X(1,27) <= 1
 0 <= X(1,28) <= 1
 0 <= X(1,29) <= 1
 0 <= X(1,30) <= 1
 0 <= X(1,31) <= 1
 0 <= X(1,32) <= 1
 0 <= X(1,33) <= 1
 0 <= X(1,34) <= 1
 0 <= X(1,35) <= 1
 0 <= X(1,36) <= 1
 0 <= X(1,37) <= 1
 0 <= X(1,38) <= 1
 0 <= X(1,39) <= 1
 0 <= X(1,40) <= 1
 0 <= X(1,41) <= 1
 0 <= X(1,42) <= 1
 0 <= X(1,43) <= 1
 0 <= X(1,44) <= 1
 0 <= X(1,45) <= 1
 0 <= X(1,46) <= 1
 0 <= X(1,47) <= 1
 0 <= X(1,48) <= 1
 0 <= X(1,49) <= 1
 0 <= X(1,50) <= 1
 0 <= X(1,51) <= 1
 0 <= X(1,52) <= 1
 0 <= X(1,53) <= 1
 0 <= X(1,54) <= 1
 0 <= X(1,55) <= 1
 0 <= X(1,56) <= 1
 0 <= X(1,57) <= 1
 0 <= X(1,58) <= 1
 0 <= X(1,59) <= 1
 0 <= X(1,60) <= 1
 0 <= X(1,61) <= 1
 0 <= X(1,62) <= 1
 0 <= X(1,63) <= 1
 0 <= X(1,64) <= 1
 0 <= X(1,65) <= 1
 0 <= X(1,66) <= 1
 0 <= X(1,67) <= 1
 0 <= X(1,68) <= 1
 0 <= X(1,69) <= 1
 0 <= X(1,70) <= 1
 0 <= X(1,71) <= 1
 0 <= X(1,72) <= 1
 0 <= X(1,73) <= 1
 0 <= X(1,74) <= 1
 0 <= X(1,75) <= 1
 0 <= X(1,76) <= 1
 0 <= X(1,77) <= 1
 0 <= X(1,78) <= 1
 0 <= X(1,79) <= 1
 0 <= X(1,80) <= 1
 0 <= X(1,81) <= 1
 0 <= X(1,82) <= 1
 0 <= X(1,83) <= 1
 0 <= X(1,84) <= 1
 0 <= X(1,85) <= 1
 0 <= X(1,86) <= 1
 0 <= X(1,87) <= 1
 0 <= X(1,88) <= 1
 0 <= X(1,89) <= 1
 0 <= X(1,90) <= 1
 0 <= X(1,91) <= 1
 0 <= X(1,92) <= 1
 0 <= X(1,93) <= 1
 0 <= X(1,94) <= 1
 0 <= X(1,95) <= 1
 0 <= X(1,96) <= 1
 0 <= X(1,97) <= 1
 0 <= X(1,98) <= 1
 0 <= X(1,99) <= 1
 0 <= X(2,0) <= 1
 0 <= X(2,1) <= 1
 0 <= X(2,2) <= 1
 0 <= X(2,3) <= 1
 0 <= X(2,4) <= 1
 0 <= X(2,5) <= 1
 0 <= X(2,6) <= 1
 0 <= X(2,7) <= 1
 0 <= X(2,8) <= 1
 0 <= X(2,9) <= 1
 0 <= X(2,10) <= 1
 0 <= X(2,11) <= 1
 0 <= X(2,12) <= 1
 0 <= X(2,13) <= 1
 0 <= X(2,14) <= 1
 0 <= X(2,15) <= 1
 0 <= X(2,16) <= 1
 0 <= X(2,17) <= 1
 0 <= X(2,18) <= 1
 0 <= X(2,19) <= 1
 0 <= X(2,20) <= 1
 0 <= X(2,21) <= 1
 0 <= X(2,22) <= 1
 0 <= X(2,23) <= 1
 0 <= X(2,24) <= 1
 0 <= X(2,25) <= 1
 0 <= X(2,26) <= 1
 0 <= X(2,27) <= 1
 0 <= X(2,28) <= 1
 0 <= X(2,29) <= 1
 0 <= X(2,30) <= 1
 0 <= X(2,31) <= 1
 0 <= X(2,32) <= 1
 0 <= X(2,33) <= 1
 0 <= X(2,34) <= 1
 0 <= X(2,35) <= 1
 0 <= X(2,36) <= 1
 0 <= X(2,37) <= 1
 0 <= X(2,38) <= 1
 0 <= X(2,39) <= 1
 0 <= X(2,40) <= 1
 0 <= X(2,41) <= 1
 0 <= X(2,42) <= 1
 0 <= X(2,43) <= 1
 0 <= X(2,44) <= 1
 0 <= X(2,45) <= 1
 0 <= X(2,46) <= 1
 0 <= X(2,47) <= 1
 0 <= X(2,48) <= 1
 0 <= X(2,49) <= 1
 0 <= X(2,50) <= 1
 0 <= X(2,51) <= 1
 0 <= X(2,52) <= 1
 0 <= X(2,53) <= 1
 0 <= X(2,54) <= 1
 0 <= X(2,55) <= 1
 0 <= X(2,56) <= 1
 0 <= X(2,57) <= 1
 0 <= X(2,58) <= 1
 0 <= X(2,59) <= 1
 0 <= X(2,60) <= 1
 0 <= X(2,61) <= 1
 0 <= X(2,62) <= 1
 0 <= X(2,63) <= 1
 0 <= X(2,64) <= 1
 0 <= X(2,65) <= 1
 0 <= X(2,66) <= 1
 0 <= X(2,67) <= 1
 0 <= X(2,68) <= 1
 0 <= X(2,69) <= 1
 0 <= X(2,70) <= 1
 0 <= X(2,71) <= 1
 0 <= X(2,72) <= 1
 0 <= X(2,73) <= 1
 0 <= X(2,74) <= 1
 0 <= X(2,75) <= 1
 0 <= X(2,76) <= 1
 0 <= X(2,77) <= 1
 0 <= X(2,78) <= 1
 0 <= X(2,79) <= 1
 0 <= X(2,80) <= 1
 0 <= X(2,81) <= 1
 0 <= X(2,82) <= 1
 0 <= X(2,83) <= 1
 0 <= X(2,84) <= 1
 0 <= X(2,85) <= 1
 0 <= X(2,86) <= 1
 0 <= X(2,87) <= 1
 0 <= X(2,88) <= 1
 0 <= X(2,89) <= 1
 0 <= X(2,90) <= 1
 0 <= X(2,91) <= 1
 0 <= X(2,92) <= 1
 0 <= X(2,93) <= 1
 0 <= X(2,94) <= 1
 0 <= X(2,95) <= 1
 0 <= X(2,96) <= 1
 0 <= X(2,97) <= 1
 0 <= X(2,98) <= 1
 0 <= X(2,99) <= 1
 0 <= X(3,0) <= 1
 0 <= X(3,1) <= 1
 0 <= X(3,2) <= 1
 0 <= X(3,3) <= 1
 0 <= X(3,4) <= 1
 0 <= X(3,5) <= 1
 0 <= X(3,6) <= 1
 0 <= X(3,7) <= 1
 0 <= X(3,8) <= 1
 0 <= X(3,9) <= 1
 0 <= X(3,10) <= 1
 0 <= X(3,11) <= 1
 0 <= X(3,12) <= 1
 0 <= X(3,13) <= 1
 0 <= X(3,14) <= 1
 0 <= X(3,15) <= 1
 0 <= X(3,16) <= 1
 0 <= X(3,17) <= 1
 0 <= X(3,18) <= 1
 0 <= X(3,19) <= 1
 0 <= X(3,20) <= 1
 0 <= X(3,21) <= 1
 0 <= X(3,22) <= 1
 0 <= X(3,23) <= 1
 0 <= X(3,24) <= 1
 0 <= X(3,25) <= 1
 0 <= X(3,26) <= 1
 0 <= X(3,27) <= 1
 0 <= X(3,28) <= 1
 0 <= X(3,29) <= 1
 0 <= X(3,30) <= 1
 0 <= X(3,31) <= 1
 0 <= X(3,32) <= 1
 0 <= X(3,33) <= 1
 0 <= X(3,34) <= 1
 0 <= X(3,35) <= 1
 0 <= X(3,36) <= 1
 0 <= X(3,37) <= 1
 0 <= X(3,38) <= 1
 0 <= X(3,39) <= 1
 0 <= X(3,40) <= 1
 0 <= X(3,41) <= 1
 0 <= X(3,42) <= 1
 0 <= X(3,43) <= 1
 0 <= X(3,44) <= 1
 0 <= X(3,45) <= 1
 0 <= X(3,46) <= 1
 0 <= X(3,47) <= 1
 0 <= X(3,48) <= 1
 0 <= X(3,49) <= 1
 0 <= X(3,50) <= 1
 0 <= X(3,51) <= 1
 0 <= X(3,52) <= 1
 0 <= X(3,53) <= 1
 0 <= X(3,54) <= 1
 0 <= X(3,55) <= 1
 0 <= X(3,56) <= 1
 0 <= X(3,57) <= 1
 0 <= X(3,58) <= 1
 0 <= X(3,59) <= 1
 0 <= X(3,60) <= 1
 0 <= X(3,61) <= 1
 0 <= X(3,62) <= 1
 0 <= X(3,63) <= 1
 0 <= X(3,64) <= 1
 0 <= X(3,65) <= 1
 0 <= X(3,66) <= 1
 0 <= X(3,67) <= 1
 0 <= X(3,68) <= 1
 0 <= X(3,69) <= 1
 0 <= X(3,70) <= 1
 0 <= X(3,71) <= 1
 0 <= X(3,72) <= 1
 0 <= X(3,73) <= 1
 0 <= X(3,74) <= 1
 0 <= X(3,75) <= 1
 0 <= X(3,76) <= 1
 0 <= X(3,77) <= 1
 0 <= X(3,78) <= 1
 0 <= X(3,79) <= 1
 0 <= X(3,80) <= 1
 0 <= X(3,81) <= 1
 0 <= X(3,82) <= 1
 0 <= X(3,83) <= 1
 0 <= X(3,84) <= 1
 0 <= X(3,85) <= 1
 0 <= X(3,86) <= 1
 0 <= X(3,87) <= 1
 0 <= X(3,88) <= 1
 0 <= X(3,89) <= 1
 0 <= X(3,90) <= 1
 0 <= X(3,91) <= 1
 0 <= X(3,92) <= 1
 0 <= X(3,93) <= 1
 0 <= X(3,94) <= 1
 0 <= X(3,95) <= 1
 0 <= X(3,96) <= 1
 0 <= X(3,97) <= 1
 0 <= X(3,98) <= 1
 0 <= X(3,99) <= 1
 0 <= X(4,0) <= 1
 0 <= X(4,1) <= 1
 0 <= X(4,2) <= 1
 0 <= X(4,3) <= 1
 0 <= X(4,4) <= 1
 0 <= X(4,5) <= 1
 0 <= X(4,6) <= 1
 0 <= X(4,7) <= 1
 0 <= X(4,8) <= 1
 0 <= X(4,9) <= 1
 0 <= X(4,10) <= 1
 0 <= X(4,11) <= 1
 0 <= X(4,12) <= 1
 0 <= X(4,13) <= 1
 0 <= X(4,14) <= 1
 0 <= X(4,15) <= 1
 0 <= X(4,16) <= 1
 0 <= X(4,17) <= 1
 0 <= X(4,18) <= 1
 0 <= X(4,19) <= 1
 0 <= X(4,20) <= 1
 0 <= X(4,21) <= 1
 0 <= X(4,22) <= 1
 0 <= X(4,23) <= 1
 0 <= X(4,24) <= 1
 0 <= X(4,25) <= 1
 0 <= X(4,26) <= 1
 0 <= X(4,27) <= 1
 0 <= X(4,28) <= 1
 0 <= X(4,29) <= 1
 0 <= X(4,30) <= 1
 0 <= X(4,31) <= 1
 0 <= X(4,32) <= 1
 0 <= X(4,33) <= 1
 0 <= X(4,34) <= 1
 0 <= X(4,35) <= 1
 0 <= X(4,36) <= 1
 0 <= X(4,37) <= 1
 0 <= X(4,38) <= 1
 0 <= X(4,39) <= 1
 0 <= X(4,40) <= 1
 0 <= X(4,41) <= 1
 0 <= X(4,42) <= 1
 0 <= X(4,43) <= 1
 0 <= X(4,44) <= 1
 0 <= X(4,45) <= 1
 0 <= X(4,46) <= 1
 0 <= X(4,47) <= 1
 0 <= X(4,48) <= 1
 0 <= X(4,49) <= 1
 0 <= X(4,50) <= 1
 0 <= X(4,51) <= 1
 0 <= X(4,52) <= 1
 0 <= X(4,53) <= 1
 0 <= X(4,54) <= 1
 0 <= X(4,55) <= 1
 0 <= X(4,56) <= 1
 0 <= X(4,57) <= 1
 0 <= X(4,58) <= 1
 0 <= X(4,59) <= 1
 0 <= X(4,60) <= 1
 0 <= X(4,61) <= 1
 0 <= X(4,62) <= 1
 0 <= X(4,63) <= 1
 0 <= X(4,64) <= 1
 0 <= X(4,65) <= 1
 0 <= X(4,66) <= 1
 0 <= X(4,67) <= 1
 0 <= X(4,68) <= 1
 0 <= X(4,69) <= 1
 0 <= X(4,70) <= 1
 0 <= X(4,71) <= 1
 0 <= X(4,72) <= 1
 0 <= X(4,73) <= 1
 0 <= X(4,74) <= 1
 0 <= X(4,75) <= 1
 0 <= X(4,76) <= 1
 0 <= X(4,77) <= 1
 0 <= X(4,78) <= 1
 0 <= X(4,79) <= 1
 0 <= X(4,80) <= 1
 0 <= X(4,81) <= 1
 0 <= X(4,82) <= 1
 0 <= X(4,83) <= 1
 0 <= X(4,84) <= 1
 0 <= X(4,85) <= 1
 0 <= X(4,86) <= 1
 0 <= X(4,87) <= 1
 0 <= X(4,88) <= 1
 0 <= X(4,89) <= 1
 0 <= X(4,90) <= 1
 0 <= X(4,91) <= 1
 0 <= X(4,92) <= 1
 0 <= X(4,93) <= 1
 0 <= X(4,94) <= 1
 0 <= X(4,95) <= 1
 0 <= X(4,96) <= 1
 0 <= X(4,97) <= 1
 0 <= X(4,98) <= 1
 0 <= X(4,99) <= 1
Binaries
 X(0,0)  X(0,1)  X(0,2)  X(0,3)  X(0,4)  X(0,5)  X(0,6)  X(0,7)  X(0,8) 
 X(0,9)  X(0,10)  X(0,11)  X(0,12)  X(0,13)  X(0,14)  X(0,15)  X(0,16) 
 X(0,17)  X(0,18)  X(0,19)  X(0,20)  X(0,21)  X(0,22)  X(0,23)  X(0,24) 
 X(0,25)  X(0,26)  X(0,27)  X(0,28)  X(0,29)  X(0,30)  X(0,31)  X(0,32) 
 X(0,33)  X(0,34)  X(0,35)  X(0,36)  X(0,37)  X(0,38)  X(0,39)  X(0,40) 
 X(0,41)  X(0,42)  X(0,43)  X(0,44)  X(0,45)  X(0,46)  X(0,47)  X(0,48) 
 X(0,49)  X(0,50)  X(0,51)  X(0,52)  X(0,53)  X(0,54)  X(0,55)  X(0,56) 
 X(0,57)  X(0,58)  X(0,59)  X(0,60)  X(0,61)  X(0,62)  X(0,63)  X(0,64) 
 X(0,65)  X(0,66)  X(0,67)  X(0,68)  X(0,69)  X(0,70)  X(0,71)  X(0,72) 
 X(0,73)  X(0,74)  X(0,75)  X(0,76)  X(0,77)  X(0,78)  X(0,79)  X(0,80) 
 X(0,81)  X(0,82)  X(0,83)  X(0,84)  X(0,85)  X(0,86)  X(0,87)  X(0,88) 
 X(0,89)  X(0,90)  X(0,91)  X(0,92)  X(0,93)  X(0,94)  X(0,95)  X(0,96) 
 X(0,97)  X(0,98)  X(0,99)  X(1,0)  X(1,1)  X(1,2)  X(1,3)  X(1,4)  X(1,5) 
 X(1,6)  X(1,7)  X(1,8)  X(1,9)  X(1,10)  X(1,11)  X(1,12)  X(1,13)  X(1,14) 
 X(1,15)  X(1,16)  X(1,17)  X(1,18)  X(1,19)  X(1,20)  X(1,21)  X(1,22) 
 X(1,23)  X(1,24)  X(1,25)  X(1,26)  X(1,27)  X(1,28)  X(1,29)  X(1,30) 
 X(1,31)  X(1,32)  X(1,33)  X(1,34)  X(1,35)  X(1,36)  X(1,37)  X(1,38) 
 X(1,39)  X(1,40)  X(1,41)  X(1,42)  X(1,43)  X(1,44)  X(1,45)  X(1,46) 
 X(1,47)  X(1,48)  X(1,49)  X(1,50)  X(1,51)  X(1,52)  X(1,53)  X(1,54) 
 X(1,55)  X(1,56)  X(1,57)  X(1,58)  X(1,59)  X(1,60)  X(1,61)  X(1,62) 
 X(1,63)  X(1,64)  X(1,65)  X(1,66)  X(1,67)  X(1,68)  X(1,69)  X(1,70) 
 X(1,71)  X(1,72)  X(1,73)  X(1,74)  X(1,75)  X(1,76)  X(1,77)  X(1,78) 
 X(1,79)  X(1,80)  X(1,81)  X(1,82)  X(1,83)  X(1,84)  X(1,85)  X(1,86) 
 X(1,87)  X(1,88)  X(1,89)  X(1,90)  X(1,91)  X(1,92)  X(1,93)  X(1,94) 
 X(1,95)  X(1,96)  X(1,97)  X(1,98)  X(1,99)  X(2,0)  X(2,1)  X(2,2)  X(2,3) 
 X(2,4)  X(2,5)  X(2,6)  X(2,7)  X(2,8)  X(2,9)  X(2,10)  X(2,11)  X(2,12) 
 X(2,13)  X(2,14)  X(2,15)  X(2,16)  X(2,17)  X(2,18)  X(2,19)  X(2,20) 
 X(2,21)  X(2,22)  X(2,23)  X(2,24)  X(2,25)  X(2,26)  X(2,27)  X(2,28) 
 X(2,29)  X(2,30)  X(2,31)  X(2,32)  X(2,33)  X(2,34)  X(2,35)  X(2,36) 
 X(2,37)  X(2,38)  X(2,39)  X(2,40)  X(2,41)  X(2,42)  X(2,43)  X(2,44) 
 X(2,45)  X(2,46)  X(2,47)  X(2,48)  X(2,49)  X(2,50)  X(2,51)  X(2,52) 
 X(2,53)  X(2,54)  X(2,55)  X(2,56)  X(2,57)  X(2,58)  X(2,59)  X(2,60) 
 X(2,61)  X(2,62)  X(2,63)  X(2,64)  X(2,65)  X(2,66)  X(2,67)  X(2,68) 
 X(2,69)  X(2,70)  X(2,71)  X(2,72)  X(2,73)  X(2,74)  X(2,75)  X(2,76) 
 X(2,77)  X(2,78)  X(2,79)  X(2,80)  X(2,81)  X(2,82)  X(2,83)  X(2,84) 
 X(2,85)  X(2,86)  X(2,87)  X(2,88)  X(2,89)  X(2,90)  X(2,91)  X(2,92) 
 X(2,93)  X(2,94)  X(2,95)  X(2,96)  X(2,97)  X(2,98)  X(2,99)  X(3,0)  X(3,1) 
 X(3,2)  X(3,3)  X(3,4)  X(3,5)  X(3,6)  X(3,7)  X(3,8)  X(3,9)  X(3,10) 
 X(3,11)  X(3,12)  X(3,13)  X(3,14)  X(3,15)  X(3,16)  X(3,17)  X(3,18) 
 X(3,19)  X(3,20)  X(3,21)  X(3,22)  X(3,23)  X(3,24)  X(3,25)  X(3,26) 
 X(3,27)  X(3,28)  X(3,29)  X(3,30)  X(3,31)  X(3,32)  X(3,33)  X(3,34) 
 X(3,35)  X(3,36)  X(3,37)  X(3,38)  X(3,39)  X(3,40)  X(3,41)  X(3,42) 
 X(3,43)  X(3,44)  X(3,45)  X(3,46)  X(3,47)  X(3,48)  X(3,49)  X(3,50) 
 X(3,51)  X(3,52)  X(3,53)  X(3,54)  X(3,55)  X(3,56)  X(3,57)  X(3,58) 
 X(3,59)  X(3,60)  X(3,61)  X(3,62)  X(3,63)  X(3,64)  X(3,65)  X(3,66) 
 X(3,67)  X(3,68)  X(3,69)  X(3,70)  X(3,71)  X(3,72)  X(3,73)  X(3,74) 
 X(3,75)  X(3,76)  X(3,77)  X(3,78)  X(3,79)  X(3,80)  X(3,81)  X(3,82) 
 X(3,83)  X(3,84)  X(3,85)  X(3,86)  X(3,87)  X(3,88)  X(3,89)  X(3,90) 
 X(3,91)  X(3,92)  X(3,93)  X(3,94)  X(3,95)  X(3,96)  X(3,97)  X(3,98) 
 X(3,99)  X(4,0)  X(4,1)  X(4,2)  X(4,3)  X(4,4)  X(4,5)  X(4,6)  X(4,7) 
 X(4,8)  X(4,9)  X(4,10)  X(4,11)  X(4,12)  X(4,13)  X(4,14)  X(4,15)  X(4,16) 
 X(4,17)  X(4,18)  X(4,19)  X(4,20)  X(4,21)  X(4,22)  X(4,23)  X(4,24) 
 X(4,25)  X(4,26)  X(4,27)  X(4,28)  X(4,29)  X(4,30)  X(4,31)  X(4,32) 
 X(4,33)  X(4,34)  X(4,35)  X(4,36)  X(4,37)  X(4,38)  X(4,39)  X(4,40) 
 X(4,41)  X(4,42)  X(4,43)  X(4,44)  X(4,45)  X(4,46)  X(4,47)  X(4,48) 
 X(4,49)  X(4,50)  X(4,51)  X(4,52)  X(4,53)  X(4,54)  X(4,55)  X(4,56) 
 X(4,57)  X(4,58)  X(4,59)  X(4,60)  X(4,61)  X(4,62)  X(4,63)  X(4,64) 
 X(4,65)  X(4,66)  X(4,67)  X(4,68)  X(4,69)  X(4,70)  X(4,71)  X(4,72) 
 X(4,73)  X(4,74)  X(4,75)  X(4,76)  X(4,77)  X(4,78)  X(4,79)  X(4,80) 
 X(4,81)  X(4,82)  X(4,83)  X(4,84)  X(4,85)  X(4,86)  X(4,87)  X(4,88) 
 X(4,89)  X(4,90)  X(4,91)  X(4,92)  X(4,93)  X(4,94)  X(4,95)  X(4,96) 
 X(4,97)  X(4,98)  X(4,99) 
End
